NAME : problems/30-tsp/instance-7.tsp
COMMENT : No Comment
TYPE : TSP
DIMENSION: 30
EDGE_WEIGHT_TYPE : EUC_2D
NODE_COORD_SECTION
1 4102 265 
2 7897 6910 
3 6356 1951 
4 8062 6269 
5 4850 6672 
6 2851 2490 
7 4074 150 
8 310 141 
9 1126 5729 
10 4107 8003 
11 622 6477 
12 1885 8237 
13 4557 5341 
14 9497 1302 
15 2974 8462 
16 8707 3469 
17 561 1853 
18 5149 1706 
19 806 4867 
20 7410 6352 
21 5365 8548 
22 8264 7134 
23 4685 7644 
24 9519 5863 
25 8645 860 
26 371 5962 
27 5293 5303 
28 8002 8205 
29 8855 85 
30 7368 1658 
EOF
